60 49 17 18 3 81 75 59 71 84 47 66 35 29 61 42 25 52 39 67 9 78 40 51 23 32 20 22 55 86 77 43 10 100 69 83 63 73 8 57 74 89 46 38 62 4 34 16 30 28 91 24 88 15 76 14 11 45 7 79 5 48 2 50 1 0 37 99 82 26 85 68 87 54 21 96 65 56 93 58 94 92 80 31 41 36 72 6 44 53 95 12 70 19 64 27 90 98 33 97 13